sat
(:added-eqs                   17401
 :arith-bound-propagations-lp 58869
 :arith-conflicts             1739
 :arith-fixed-eqs             4180
 :arith-lower                 82128
 :arith-make-feasible         33825
 :arith-max-columns           870
 :arith-max-rows              441
 :arith-offset-eqs            13466
 :arith-upper                 62085
 :binary-propagations         99819
 :conflicts                   2105
 :decisions                   20698
 :del-clause                  92
 :final-checks                1
 :max-memory                  32.36
 :memory                      21.09
 :minimized-lits              15089
 :mk-bool-var                 3799
 :mk-clause                   2810
 :mk-clause-binary            5337
 :num-allocs                  75002952
 :num-checks                  1
 :propagations                125239
 :restarts                    6
 :rlimit-count                2333422
 :solve-eqs-elim-vars         355
 :solve-eqs-steps             2203
 :time                        1.32
 :total-time                  1.35)
